NAME : local_0
TYPE : ATSP
DIMENSION : 7
EDGE_WEIGHT_TYPE : EXPLICIT
EDGE_WEIGHT_FORMAT : FULL_MATRIX
EDGE_WEIGHT_SECTION
0 1289 540 992 892 159 832 
0 0 10000000 585 826 1027 825 
0 10000000 0 744 10000000 645 807 
0 585 744 0 955 1053 592 
0 847 10000000 945 0 761 397 
0 1217 645 1030 761 0 758 
0 877 807 592 397 758 0 
EOF